p edge 65 1040
e 1 2
e 1 3
e 1 4
e 1 5
e 1 6
e 1 7
e 1 8
e 1 9
e 1 10
e 1 11
e 1 12
e 1 13
e 1 14
e 1 15
e 1 16
e 1 17
e 1 18
e 1 19
e 1 20
e 1 21
e 1 22
e 1 23
e 1 24
e 1 25
e 1 26
e 1 27
e 1 28
e 1 29
e 1 30
e 1 31
e 1 32
e 1 33
e 2 3
e 2 4
e 2 5
e 2 6
e 2 7
e 2 8
e 2 9
e 2 10
e 2 11
e 2 12
e 2 13
e 2 14
e 2 15
e 2 16
e 2 17
e 2 34
e 2 35
e 2 36
e 2 37
e 2 38
e 2 39
e 2 40
e 2 41
e 2 42
e 2 43
e 2 44
e 2 45
e 2 46
e 2 47
e 2 48
e 2 49
e 3 10
e 3 11
e 3 14
e 3 16
e 3 20
e 3 23
e 3 24
e 3 25
e 3 26
e 3 28
e 3 29
e 3 30
e 3 31
e 3 33
e 3 36
e 3 37
e 3 38
e 3 39
e 3 42
e 3 43
e 3 44
e 3 46
e 3 48
e 3 49
e 3 51
e 3 55
e 3 56
e 3 59
e 3 61
e 3 64
e 4 5
e 4 6
e 4 13
e 4 14
e 4 16
e 4 18
e 4 19
e 4 22
e 4 23
e 4 24
e 4 26
e 4 27
e 4 28
e 4 29
e 4 35
e 4 36
e 4 37
e 4 39
e 4 43
e 4 44
e 4 45
e 4 47
e 4 48
e 4 50
e 4 52
e 4 56
e 4 57
e 4 58
e 4 62
e 4 63
e 5 7
e 5 9
e 5 10
e 5 13
e 5 15
e 5 19
e 5 22
e 5 24
e 5 26
e 5 30
e 5 31
e 5 32
e 5 33
e 5 35
e 5 36
e 5 40
e 5 42
e 5 43
e 5 45
e 5 48
e 5 49
e 5 51
e 5 53
e 5 57
e 5 58
e 5 59
e 5 60
e 5 62
e 5 64
e 6 7
e 6 10
e 6 14
e 6 15
e 6 17
e 6 21
e 6 22
e 6 23
e 6 25
e 6 26
e 6 27
e 6 29
e 6 31
e 6 38
e 6 39
e 6 41
e 6 42
e 6 45
e 6 46
e 6 47
e 6 49
e 6 50
e 6 52
e 6 53
e 6 54
e 6 57
e 6 61
e 6 62
e 6 64
e 7 8
e 7 12
e 7 16
e 7 17
e 7 19
e 7 22
e 7 25
e 7 26
e 7 27
e 7 29
e 7 30
e 7 31
e 7 34
e 7 36
e 7 37
e 7 40
e 7 41
e 7 42
e 7 47
e 7 49
e 7 51
e 7 56
e 7 57
e 7 59
e 7 60
e 7 61
e 7 63
e 7 65
e 8 9
e 8 11
e 8 12
e 8 15
e 8 16
e 8 18
e 8 21
e 8 22
e 8 25
e 8 27
e 8 28
e 8 30
e 8 33
e 8 36
e 8 38
e 8 40
e 8 44
e 8 46
e 8 47
e 8 48
e 8 49
e 8 51
e 8 52
e 8 54
e 8 55
e 8 57
e 8 58
e 8 62
e 8 63
e 9 12
e 9 13
e 9 15
e 9 17
e 9 18
e 9 20
e 9 23
e 9 24
e 9 26
e 9 29
e 9 31
e 9 33
e 9 34
e 9 35
e 9 38
e 9 41
e 9 43
e 9 46
e 9 47
e 9 48
e 9 54
e 9 55
e 9 57
e 9 58
e 9 59
e 9 61
e 9 62
e 9 65
e 10 11
e 10 15
e 10 17
e 10 19
e 10 20
e 10 21
e 10 23
e 10 24
e 10 27
e 10 30
e 10 32
e 10 39
e 10 40
e 10 42
e 10 44
e 10 46
e 10 47
e 10 48
e 10 49
e 10 50
e 10 54
e 10 56
e 10 58
e 10 59
e 10 60
e 10 62
e 10 65
e 11 13
e 11 16
e 11 17
e 11 20
e 11 21
e 11 22
e 11 23
e 11 25
e 11 28
e 11 31
e 11 33
e 11 34
e 11 37
e 11 40
e 11 41
e 11 43
e 11 45
e 11 48
e 11 49
e 11 50
e 11 52
e 11 58
e 11 60
e 11 62
e 11 63
e 11 64
e 11 65
e 12 14
e 12 16
e 12 17
e 12 18
e 12 19
e 12 20
e 12 23
e 12 29
e 12 30
e 12 32
e 12 33
e 12 34
e 12 35
e 12 39
e 12 42
e 12 45
e 12 47
e 12 48
e 12 49
e 12 52
e 12 53
e 12 54
e 12 55
e 12 56
e 12 60
e 12 63
e 12 64
e 13 14
e 13 16
e 13 17
e 13 19
e 13 21
e 13 24
e 13 26
e 13 28
e 13 31
e 13 32
e 13 34
e 13 37
e 13 40
e 13 44
e 13 45
e 13 46
e 13 47
e 13 51
e 13 53
e 13 54
e 13 55
e 13 61
e 13 62
e 13 63
e 13 64
e 13 65
e 14 15
e 14 16
e 14 20
e 14 25
e 14 26
e 14 27
e 14 28
e 14 30
e 14 32
e 14 35
e 14 38
e 14 41
e 14 42
e 14 44
e 14 45
e 14 48
e 14 52
e 14 53
e 14 55
e 14 59
e 14 60
e 14 61
e 14 62
e 14 63
e 14 65
e 15 17
e 15 18
e 15 24
e 15 25
e 15 27
e 15 28
e 15 32
e 15 33
e 15 35
e 15 38
e 15 41
e 15 43
e 15 44
e 15 46
e 15 49
e 15 50
e 15 51
e 15 53
e 15 56
e 15 57
e 15 60
e 15 63
e 15 64
e 15 65
e 16 22
e 16 28
e 16 29
e 16 30
e 16 32
e 16 33
e 16 39
e 16 40
e 16 41
e 16 43
e 16 44
e 16 47
e 16 50
e 16 53
e 16 54
e 16 56
e 16 57
e 16 58
e 16 59
e 16 61
e 16 64
e 16 65
e 17 18
e 17 21
e 17 27
e 17 29
e 17 31
e 17 32
e 17 36
e 17 37
e 17 39
e 17 43
e 17 45
e 17 46
e 17 52
e 17 55
e 17 56
e 17 58
e 17 59
e 17 60
e 17 61
e 17 63
e 17 64
e 17 65
e 18 19
e 18 21
e 18 23
e 18 24
e 18 25
e 18 27
e 18 28
e 18 29
e 18 33
e 18 34
e 18 36
e 18 39
e 18 40
e 18 42
e 18 43
e 18 44
e 18 45
e 18 48
e 18 50
e 18 51
e 18 52
e 18 53
e 18 59
e 18 61
e 18 65
e 19 20
e 19 23
e 19 24
e 19 25
e 19 28
e 19 30
e 19 31
e 19 32
e 19 34
e 19 36
e 19 37
e 19 39
e 19 41
e 19 42
e 19 44
e 19 46
e 19 49
e 19 52
e 19 53
e 19 54
e 19 57
e 19 58
e 19 63
e 19 65
e 20 23
e 20 25
e 20 26
e 20 27
e 20 29
e 20 30
e 20 31
e 20 32
e 20 34
e 20 35
e 20 40
e 20 41
e 20 43
e 20 44
e 20 45
e 20 46
e 20 47
e 20 50
e 20 51
e 20 52
e 20 55
e 20 57
e 20 58
e 20 60
e 21 22
e 21 23
e 21 24
e 21 25
e 21 28
e 21 29
e 21 30
e 21 32
e 21 35
e 21 36
e 21 37
e 21 38
e 21 39
e 21 40
e 21 41
e 21 45
e 21 47
e 21 51
e 21 53
e 21 54
e 21 55
e 21 59
e 21 60
e 21 62
e 22 23
e 22 26
e 22 27
e 22 28
e 22 30
e 22 31
e 22 33
e 22 34
e 22 35
e 22 36
e 22 38
e 22 42
e 22 43
e 22 45
e 22 46
e 22 50
e 22 53
e 22 54
e 22 55
e 22 56
e 22 58
e 22 60
e 22 65
e 23 28
e 23 29
e 23 31
e 23 34
e 23 35
e 23 36
e 23 38
e 23 44
e 23 47
e 23 48
e 23 49
e 23 53
e 23 56
e 23 57
e 23 60
e 23 61
e 23 62
e 23 64
e 23 65
e 24 26
e 24 28
e 24 29
e 24 30
e 24 33
e 24 37
e 24 38
e 24 40
e 24 41
e 24 42
e 24 43
e 24 47
e 24 49
e 24 50
e 24 52
e 24 54
e 24 55
e 24 56
e 24 60
e 24 61
e 24 63
e 25 26
e 25 31
e 25 32
e 25 33
e 25 36
e 25 37
e 25 39
e 25 41
e 25 42
e 25 43
e 25 47
e 25 48
e 25 50
e 25 51
e 25 53
e 25 55
e 25 57
e 25 62
e 25 63
e 25 65
e 26 27
e 26 29
e 26 33
e 26 34
e 26 36
e 26 39
e 26 40
e 26 41
e 26 46
e 26 48
e 26 51
e 26 52
e 26 54
e 26 55
e 26 56
e 26 60
e 26 62
e 26 64
e 26 65
e 27 28
e 27 31
e 27 32
e 27 34
e 27 35
e 27 37
e 27 40
e 27 44
e 27 48
e 27 49
e 27 50
e 27 51
e 27 52
e 27 54
e 27 55
e 27 56
e 27 58
e 27 59
e 27 61
e 28 34
e 28 35
e 28 39
e 28 41
e 28 42
e 28 46
e 28 49
e 28 51
e 28 55
e 28 57
e 28 58
e 28 59
e 28 60
e 28 61
e 28 63
e 28 64
e 29 30
e 29 37
e 29 38
e 29 40
e 29 41
e 29 45
e 29 46
e 29 48
e 29 50
e 29 51
e 29 53
e 29 56
e 29 57
e 29 58
e 29 59
e 29 63
e 29 64
e 30 32
e 30 35
e 30 36
e 30 38
e 30 43
e 30 45
e 30 46
e 30 49
e 30 50
e 30 51
e 30 52
e 30 54
e 30 59
e 30 61
e 30 62
e 30 63
e 30 65
e 31 33
e 31 35
e 31 37
e 31 38
e 31 42
e 31 43
e 31 44
e 31 47
e 31 51
e 31 52
e 31 53
e 31 54
e 31 58
e 31 59
e 31 61
e 31 63
e 31 64
e 32 33
e 32 34
e 32 35
e 32 36
e 32 37
e 32 38
e 32 39
e 32 40
e 32 50
e 32 53
e 32 55
e 32 56
e 32 57
e 32 58
e 32 61
e 32 62
e 32 64
e 33 34
e 33 37
e 33 38
e 33 39
e 33 42
e 33 44
e 33 45
e 33 50
e 33 52
e 33 54
e 33 56
e 33 57
e 33 59
e 33 60
e 33 62
e 33 64
e 34 35
e 34 37
e 34 38
e 34 39
e 34 40
e 34 41
e 34 42
e 34 45
e 34 46
e 34 49
e 34 50
e 34 51
e 34 56
e 34 61
e 34 62
e 34 65
e 35 36
e 35 37
e 35 38
e 35 39
e 35 41
e 35 43
e 35 47
e 35 48
e 35 50
e 35 51
e 35 54
e 35 59
e 35 60
e 35 63
e 35 64
e 36 37
e 36 38
e 36 39
e 36 40
e 36 43
e 36 44
e 36 46
e 36 48
e 36 52
e 36 55
e 36 57
e 36 60
e 36 61
e 36 64
e 36 65
e 37 38
e 37 41
e 37 44
e 37 45
e 37 48
e 37 49
e 37 50
e 37 54
e 37 55
e 37 56
e 37 57
e 37 59
e 37 63
e 38 40
e 38 41
e 38 42
e 38 44
e 38 46
e 38 52
e 38 53
e 38 56
e 38 58
e 38 61
e 38 62
e 38 63
e 39 41
e 39 42
e 39 43
e 39 46
e 39 47
e 39 51
e 39 52
e 39 54
e 39 56
e 39 58
e 39 59
e 39 62
e 39 64
e 40 41
e 40 42
e 40 44
e 40 47
e 40 48
e 40 50
e 40 51
e 40 52
e 40 53
e 40 58
e 40 60
e 40 61
e 40 64
e 41 43
e 41 49
e 41 52
e 41 53
e 41 54
e 41 57
e 41 58
e 41 59
e 41 60
e 41 65
e 42 45
e 42 46
e 42 47
e 42 48
e 42 50
e 42 53
e 42 55
e 42 58
e 42 59
e 42 60
e 42 61
e 42 63
e 43 45
e 43 47
e 43 49
e 43 50
e 43 51
e 43 52
e 43 53
e 43 55
e 43 56
e 43 58
e 43 61
e 43 65
e 44 45
e 44 46
e 44 47
e 44 51
e 44 52
e 44 53
e 44 54
e 44 56
e 44 57
e 44 59
e 44 60
e 44 65
e 45 46
e 45 49
e 45 50
e 45 51
e 45 52
e 45 53
e 45 55
e 45 57
e 45 59
e 45 60
e 45 62
e 46 50
e 46 51
e 46 54
e 46 55
e 46 57
e 46 58
e 46 63
e 46 64
e 46 65
e 47 50
e 47 51
e 47 54
e 47 55
e 47 56
e 47 57
e 47 60
e 47 61
e 47 62
e 47 63
e 48 49
e 48 50
e 48 53
e 48 54
e 48 55
e 48 58
e 48 59
e 48 62
e 48 63
e 48 64
e 48 65
e 49 51
e 49 52
e 49 53
e 49 54
e 49 55
e 49 56
e 49 57
e 49 61
e 49 62
e 49 64
e 50 54
e 50 57
e 50 61
e 50 63
e 50 64
e 50 65
e 51 53
e 51 56
e 51 59
e 51 62
e 51 63
e 51 64
e 52 54
e 52 58
e 52 60
e 52 61
e 52 62
e 52 63
e 52 64
e 53 54
e 53 55
e 53 56
e 53 58
e 53 64
e 53 65
e 54 55
e 54 59
e 54 64
e 54 65
e 55 56
e 55 57
e 55 58
e 55 60
e 55 61
e 56 58
e 56 60
e 56 62
e 56 63
e 56 65
e 57 58
e 57 59
e 57 60
e 57 61
e 57 62
e 57 64
e 58 59
e 58 62
e 58 63
e 59 60
e 59 61
e 59 62
e 59 65
e 60 63
e 60 64
e 60 65
e 61 62
e 61 64
e 61 65
e 62 63
e 62 65
e 63 64
e 63 65
